jobs  (incl. supersource/sink ):	102
RESOURCES
- renewable                 : 2 R
- nonrenewable              : 2 N
- doubly constrained        : 0 D
************************************************************************
PRECEDENCE RELATIONS:
jobnr.    #modes  #successors   successors
1	1	26		2 3 4 5 6 7 8 9 10 11 12 13 14 15 17 18 20 21 22 25 26 28 30 31 38 49 
2	3	14		101 100 97 55 52 51 50 45 43 42 40 37 34 19 
3	3	17		101 99 94 92 69 68 61 60 55 50 48 46 41 39 37 35 24 
4	3	15		68 65 62 61 56 52 51 45 42 40 37 36 34 33 23 
5	3	19		100 99 97 96 88 69 68 66 62 61 60 57 52 50 44 42 39 37 24 
6	3	13		98 94 69 65 62 61 58 56 51 48 44 37 16 
7	3	13		100 98 93 66 62 54 53 50 46 44 42 29 27 
8	3	16		95 93 90 89 66 65 62 61 58 52 51 48 47 41 34 33 
9	3	18		97 96 95 94 92 88 87 85 67 65 64 60 55 50 45 43 39 35 
10	3	21		98 97 95 93 91 90 89 88 87 84 77 68 67 65 63 62 59 58 47 46 44 
11	3	14		100 99 96 95 94 89 85 66 64 63 61 52 44 29 
12	3	25		97 96 95 94 93 91 90 89 88 86 84 83 80 78 74 69 68 67 66 65 64 62 61 58 52 
13	3	17		99 98 97 96 95 93 85 80 77 74 69 67 61 50 44 43 40 
14	3	18		101 98 96 94 93 89 88 87 79 77 69 68 60 59 58 55 44 41 
15	3	17		98 96 94 90 89 88 87 76 75 71 64 63 62 61 59 44 37 
16	3	14		100 95 90 89 88 86 81 77 68 63 59 55 41 32 
17	3	14		98 96 92 89 86 85 81 78 68 66 64 63 59 29 
18	3	23		97 96 95 92 91 90 89 86 85 84 82 80 78 74 68 67 66 65 64 63 61 52 51 
19	3	15		99 98 96 91 90 89 86 81 67 65 63 61 59 58 32 
20	3	25		100 99 97 94 92 91 90 86 84 83 81 80 78 77 76 73 71 67 66 65 64 63 62 61 59 
21	3	22		98 97 95 93 92 91 89 88 86 85 84 83 82 81 80 77 74 66 65 64 63 51 
22	3	21		98 96 94 93 92 91 89 88 87 86 83 81 80 78 77 65 63 62 60 59 58 
23	3	16		94 90 88 84 82 80 77 76 74 72 71 67 66 64 63 44 
24	3	15		98 95 93 89 87 85 83 82 79 78 77 72 59 58 45 
25	3	16		101 94 91 90 89 85 84 80 78 77 75 68 67 61 59 58 
26	3	13		98 96 90 89 82 79 77 75 71 63 62 58 44 
27	3	9		94 89 86 83 78 75 61 58 37 
28	3	16		93 88 85 84 83 82 80 77 76 73 72 68 67 65 64 63 
29	3	15		91 90 88 87 84 83 82 80 79 77 74 70 65 60 51 
30	3	17		101 96 95 94 89 88 84 83 77 76 75 74 72 71 67 64 63 
31	3	14		100 90 88 85 83 81 79 77 76 73 72 71 66 59 
32	3	13		93 85 84 83 80 78 76 74 73 70 66 64 60 
33	3	10		100 94 91 87 86 78 77 69 60 59 
34	3	6		87 77 72 71 59 44 
35	3	8		93 91 89 83 80 72 63 51 
36	3	8		93 81 77 75 70 66 60 58 
37	3	12		95 91 84 82 81 80 79 77 74 73 72 70 
38	3	10		99 88 82 81 78 77 74 73 71 70 
39	3	9		91 84 80 78 77 75 74 72 70 
40	3	8		94 90 88 79 76 73 71 63 
41	3	8		97 84 82 80 78 75 74 73 
42	3	5		82 80 72 64 63 
43	3	4		89 78 63 58 
44	3	6		92 86 83 81 78 73 
45	3	6		90 86 81 75 74 71 
46	3	6		96 82 80 78 72 70 
47	3	6		81 76 75 74 73 71 
48	3	5		88 78 74 70 64 
49	3	5		73 72 71 70 65 
50	3	5		78 75 73 72 71 
51	3	4		76 75 73 71 
52	3	4		81 77 71 70 
53	3	4		88 85 80 76 
54	3	3		97 72 65 
55	3	3		82 74 70 
56	3	3		82 80 70 
57	3	3		85 84 70 
58	3	2		76 73 
59	3	2		74 70 
60	3	2		72 71 
61	3	2		72 70 
62	3	2		85 72 
63	3	1		70 
64	3	1		79 
65	3	1		75 
66	3	1		87 
67	3	1		79 
68	3	1		71 
69	3	1		82 
70	3	1		102 
71	3	1		102 
72	3	1		102 
73	3	1		102 
74	3	1		102 
75	3	1		102 
76	3	1		102 
77	3	1		102 
78	3	1		102 
79	3	1		102 
80	3	1		102 
81	3	1		102 
82	3	1		102 
83	3	1		102 
84	3	1		102 
85	3	1		102 
86	3	1		102 
87	3	1		102 
88	3	1		102 
89	3	1		102 
90	3	1		102 
91	3	1		102 
92	3	1		102 
93	3	1		102 
94	3	1		102 
95	3	1		102 
96	3	1		102 
97	3	1		102 
98	3	1		102 
99	3	1		102 
100	3	1		102 
101	3	1		102 
102	1	0		
************************************************************************
REQUESTS/DURATIONS
jobnr.	mode	dur	R1	R2	N1	N2	
------------------------------------------------------------------------
1	1	0	0	0	0	0	
2	1	3	4	3	6	6	
	2	7	2	2	6	6	
	3	9	2	1	6	6	
3	1	1	2	1	7	10	
	2	5	2	1	6	10	
	3	7	2	1	5	10	
4	1	2	4	3	3	7	
	2	3	4	2	2	5	
	3	4	2	1	1	3	
5	1	5	3	5	7	5	
	2	8	3	5	5	3	
	3	10	3	5	4	3	
6	1	1	5	3	9	8	
	2	4	2	2	7	6	
	3	7	1	1	6	5	
7	1	6	2	4	7	9	
	2	7	2	4	5	7	
	3	8	2	3	3	2	
8	1	1	3	5	5	10	
	2	2	2	5	4	6	
	3	5	2	5	4	3	
9	1	4	2	1	8	3	
	2	5	1	1	7	2	
	3	9	1	1	6	2	
10	1	1	5	4	7	7	
	2	2	4	4	6	5	
	3	3	2	4	4	4	
11	1	3	3	4	3	6	
	2	5	2	4	3	4	
	3	6	1	3	1	4	
12	1	2	4	5	5	10	
	2	3	2	3	5	8	
	3	7	2	2	5	4	
13	1	1	4	4	5	5	
	2	4	4	3	5	5	
	3	5	4	3	5	2	
14	1	2	2	4	7	8	
	2	3	2	3	5	6	
	3	6	2	2	3	4	
15	1	2	3	3	3	3	
	2	5	3	2	2	2	
	3	9	2	2	1	2	
16	1	2	4	4	3	8	
	2	3	4	3	2	6	
	3	4	2	3	2	3	
17	1	1	2	5	7	2	
	2	4	1	4	5	2	
	3	7	1	4	5	1	
18	1	2	1	2	6	9	
	2	7	1	1	5	8	
	3	9	1	1	4	4	
19	1	1	2	5	2	6	
	2	3	1	4	1	4	
	3	5	1	2	1	2	
20	1	3	4	3	10	7	
	2	7	4	2	6	6	
	3	10	4	2	4	6	
21	1	1	5	3	3	7	
	2	7	4	3	1	6	
	3	10	2	3	1	6	
22	1	5	1	4	9	6	
	2	6	1	4	8	6	
	3	7	1	4	5	4	
23	1	5	1	2	5	7	
	2	7	1	1	4	3	
	3	9	1	1	3	3	
24	1	4	2	4	8	7	
	2	8	2	4	7	6	
	3	10	1	4	5	6	
25	1	5	4	1	6	8	
	2	6	3	1	6	7	
	3	9	2	1	6	7	
26	1	1	1	1	10	8	
	2	2	1	1	7	6	
	3	7	1	1	7	2	
27	1	3	2	4	10	9	
	2	4	2	4	9	7	
	3	7	2	4	9	5	
28	1	1	2	5	6	9	
	2	6	2	3	6	7	
	3	7	2	3	5	6	
29	1	1	1	1	6	9	
	2	5	1	1	3	4	
	3	10	1	1	1	3	
30	1	2	3	5	3	8	
	2	3	3	4	3	4	
	3	5	3	4	3	3	
31	1	2	3	3	7	4	
	2	9	1	2	7	4	
	3	10	1	2	6	3	
32	1	2	4	4	9	3	
	2	3	3	3	9	3	
	3	7	2	1	9	2	
33	1	2	1	3	4	6	
	2	5	1	3	3	6	
	3	6	1	3	3	5	
34	1	2	4	5	9	8	
	2	3	3	5	7	8	
	3	9	2	5	6	6	
35	1	3	4	2	5	7	
	2	9	4	1	4	5	
	3	10	3	1	2	4	
36	1	3	1	2	6	7	
	2	9	1	2	5	7	
	3	10	1	2	1	7	
37	1	5	3	5	8	9	
	2	6	2	5	5	8	
	3	9	1	5	4	7	
38	1	1	2	4	6	8	
	2	2	1	4	6	8	
	3	10	1	4	6	6	
39	1	7	4	3	3	10	
	2	9	3	3	2	9	
	3	10	2	3	1	7	
40	1	8	1	3	5	6	
	2	9	1	1	5	4	
	3	10	1	1	1	3	
41	1	2	2	3	1	10	
	2	8	2	2	1	9	
	3	9	2	2	1	8	
42	1	1	2	4	9	7	
	2	6	1	3	7	7	
	3	10	1	2	6	7	
43	1	3	4	2	9	6	
	2	7	2	1	7	5	
	3	8	2	1	6	5	
44	1	1	2	5	6	6	
	2	8	2	3	6	5	
	3	9	2	3	6	4	
45	1	4	4	4	3	7	
	2	9	4	4	3	6	
	3	10	4	4	2	7	
46	1	2	1	5	9	3	
	2	3	1	4	8	2	
	3	10	1	4	7	2	
47	1	2	3	3	9	2	
	2	8	3	3	8	2	
	3	10	3	1	8	2	
48	1	2	2	5	8	2	
	2	4	1	4	5	2	
	3	10	1	4	2	2	
49	1	4	5	4	8	5	
	2	9	3	4	7	2	
	3	10	3	4	6	2	
50	1	5	4	3	9	7	
	2	9	3	3	8	7	
	3	10	3	2	8	7	
51	1	3	1	3	5	10	
	2	5	1	2	5	6	
	3	7	1	2	5	4	
52	1	2	3	2	10	8	
	2	9	2	2	8	5	
	3	10	1	2	8	5	
53	1	5	4	4	8	5	
	2	6	3	3	7	4	
	3	9	2	3	2	3	
54	1	1	3	5	8	3	
	2	2	2	3	6	2	
	3	3	1	2	5	2	
55	1	1	3	2	6	9	
	2	2	1	2	5	8	
	3	8	1	2	5	7	
56	1	4	2	4	4	10	
	2	5	1	4	3	5	
	3	10	1	4	2	3	
57	1	6	2	3	7	7	
	2	9	1	3	6	5	
	3	10	1	3	2	1	
58	1	2	3	5	8	6	
	2	3	3	4	6	6	
	3	7	3	2	5	4	
59	1	2	5	3	9	5	
	2	7	3	2	7	3	
	3	9	3	2	6	2	
60	1	3	3	4	5	5	
	2	5	3	4	3	5	
	3	8	3	4	2	5	
61	1	6	5	4	7	8	
	2	9	3	3	6	7	
	3	10	1	3	6	7	
62	1	2	3	2	5	6	
	2	4	2	1	3	3	
	3	5	2	1	2	2	
63	1	5	4	4	10	5	
	2	7	2	4	8	5	
	3	8	2	3	6	4	
64	1	1	4	5	4	10	
	2	7	3	3	3	9	
	3	8	2	2	2	8	
65	1	3	4	3	8	10	
	2	8	4	3	5	7	
	3	10	4	3	5	5	
66	1	4	2	4	8	7	
	2	5	2	4	6	6	
	3	10	2	4	4	5	
67	1	1	1	4	5	3	
	2	3	1	4	4	1	
	3	8	1	3	2	1	
68	1	1	2	4	9	8	
	2	7	2	4	8	5	
	3	9	2	4	8	3	
69	1	4	4	5	3	1	
	2	5	3	4	2	2	
	3	7	3	4	2	1	
70	1	2	3	4	4	9	
	2	4	3	4	2	6	
	3	10	2	4	2	5	
71	1	4	2	1	3	7	
	2	7	1	1	3	3	
	3	10	1	1	2	3	
72	1	2	3	2	9	8	
	2	7	3	2	4	5	
	3	10	1	2	3	4	
73	1	2	3	4	6	9	
	2	3	3	4	4	5	
	3	10	2	3	4	2	
74	1	1	1	3	2	8	
	2	9	1	2	2	7	
	3	10	1	2	2	6	
75	1	3	4	2	8	6	
	2	4	3	1	7	5	
	3	5	3	1	7	1	
76	1	2	2	3	2	8	
	2	3	2	2	1	7	
	3	6	2	2	1	6	
77	1	2	5	4	7	7	
	2	5	4	4	6	6	
	3	6	3	3	5	4	
78	1	1	4	3	5	7	
	2	3	3	3	3	5	
	3	9	2	3	3	3	
79	1	5	4	1	5	8	
	2	6	4	1	4	4	
	3	9	4	1	3	3	
80	1	1	2	1	7	6	
	2	2	2	1	7	5	
	3	8	1	1	7	4	
81	1	3	4	3	9	2	
	2	9	4	3	9	1	
	3	10	3	3	8	1	
82	1	1	2	4	8	9	
	2	3	2	3	5	9	
	3	10	2	2	4	9	
83	1	1	3	5	7	1	
	2	3	2	3	6	1	
	3	7	2	2	4	1	
84	1	5	5	1	9	7	
	2	7	2	1	8	7	
	3	8	1	1	8	7	
85	1	2	3	4	9	4	
	2	4	3	2	9	2	
	3	8	3	2	8	2	
86	1	1	2	1	3	7	
	2	3	1	1	3	7	
	3	4	1	1	3	5	
87	1	8	3	4	7	8	
	2	9	2	4	6	5	
	3	10	1	3	6	4	
88	1	3	3	4	7	8	
	2	7	3	4	3	7	
	3	8	3	3	3	7	
89	1	1	5	3	9	7	
	2	3	5	2	6	7	
	3	5	5	2	2	6	
90	1	5	4	3	6	3	
	2	6	4	2	5	3	
	3	7	4	2	4	3	
91	1	4	4	2	2	5	
	2	5	4	2	2	4	
	3	8	4	2	2	3	
92	1	1	5	4	8	5	
	2	5	2	4	7	5	
	3	9	1	4	7	3	
93	1	2	5	2	3	7	
	2	6	4	2	2	5	
	3	9	4	2	2	4	
94	1	4	3	1	9	7	
	2	7	3	1	9	5	
	3	8	3	1	9	2	
95	1	2	1	3	10	5	
	2	7	1	3	8	4	
	3	9	1	3	6	4	
96	1	5	4	3	10	8	
	2	6	3	2	10	6	
	3	7	2	2	10	3	
97	1	3	4	5	8	8	
	2	7	4	4	6	4	
	3	8	4	4	6	3	
98	1	6	4	5	6	4	
	2	7	4	5	5	3	
	3	9	4	5	3	3	
99	1	2	3	1	10	4	
	2	5	2	1	8	4	
	3	10	2	1	6	4	
100	1	3	1	4	4	4	
	2	7	1	4	3	3	
	3	8	1	3	3	3	
101	1	1	5	4	4	5	
	2	2	4	2	4	4	
	3	3	3	2	3	3	
102	1	0	0	0	0	0	
************************************************************************

 RESOURCE AVAILABILITIES 
	R 1	R 2	N 1	N 2
	60	68	590	595

************************************************************************
